2025-02-23 18:23:20,879 - INFO - Set parameter WLSAccessID
2025-02-23 18:23:20,879 - INFO - Set parameter WLSSecret
2025-02-23 18:23:20,879 - INFO - Set parameter LicenseID to value 2626770
2025-02-23 18:23:20,896 - INFO - Academic license 2626770 - for non-commercial use only - registered to fa___@uw.edu
2025-02-23 18:23:20,897 - INFO - Initialization complete
2025-02-23 18:23:32,740 - INFO - Variables created successfully
2025-02-23 18:25:14,214 - INFO - Constraints added successfully
2025-02-23 18:25:14,450 - INFO - Objective function set successfully
2025-02-23 18:25:15,002 - INFO - Set parameter MIPGap to value 0.1
2025-02-23 18:25:15,002 - INFO - Set parameter TimeLimit to value 3600
2025-02-23 18:25:15,002 - INFO - Set parameter MIPFocus to value 1
2025-02-23 18:25:15,002 - INFO - Set parameter Presolve to value 2
2025-02-23 18:25:15,002 - INFO - Set parameter NodefileStart to value 0.5
2025-02-23 18:25:15,002 - INFO - Set parameter NodefileDir to value "c:/path/to/fast/disk"
2025-02-23 18:25:15,004 - INFO - Set parameter Threads to value 7
2025-02-23 18:25:19,497 - INFO - Greedy initial solution generated successfully
2025-02-23 18:25:19,497 - INFO - Starting optimization - accepting solutions within 10% of optimal
2025-02-23 18:25:19,497 - INFO - Maximum possible satisfied requests: 9600
2025-02-23 18:25:21,180 - INFO - Gurobi Optimizer version 12.0.1 build v12.0.1rc0 (win64 - Windows 11.0 (26100.2))
2025-02-23 18:25:21,180 - INFO - 
2025-02-23 18:25:21,182 - INFO - CPU model: AMD Ryzen 7 2700X Eight-Core Processor, instruction set [SSE2|AVX|AVX2]
2025-02-23 18:25:21,182 - INFO - Thread count: 8 physical cores, 16 logical processors, using up to 7 threads
2025-02-23 18:25:21,182 - INFO - 
2025-02-23 18:25:21,182 - INFO - Non-default parameters:
2025-02-23 18:25:21,182 - INFO - TimeLimit  3600
2025-02-23 18:25:21,182 - INFO - MIPGap  0.1
2025-02-23 18:25:21,182 - INFO - MIPFocus  1
2025-02-23 18:25:21,184 - INFO - NodefileStart  0.5
2025-02-23 18:25:21,184 - INFO - Presolve  2
2025-02-23 18:25:21,184 - INFO - Threads  7
2025-02-23 18:25:21,184 - INFO - 
2025-02-23 18:25:21,185 - INFO - Academic license 2626770 - for non-commercial use only - registered to fa___@uw.edu
2025-02-23 18:25:21,185 - INFO - Optimize a model with 6490921 rows, 2428104 columns and 17788464 nonzeros
2025-02-23 18:25:21,391 - INFO - Model fingerprint: 0x2274cf97
2025-02-23 18:25:21,393 - INFO - Variable types: 0 continuous, 2428104 integer (2428104 binary)
2025-02-23 18:25:21,422 - INFO - Coefficient statistics:
2025-02-23 18:25:21,422 - INFO -   Matrix range     [1e+00, 1e+00]
2025-02-23 18:25:21,422 - INFO -   Objective range  [1e+00, 1e+00]
2025-02-23 18:25:21,422 - INFO -   Bounds range     [1e+00, 1e+00]
2025-02-23 18:25:21,422 - INFO -   RHS range        [1e+00, 4e+01]
2025-02-23 18:25:21,423 - INFO - 
2025-02-23 18:25:21,567 - INFO - User MIP start did not produce a new incumbent solution
2025-02-23 18:25:21,675 - INFO - User MIP start violates constraint course_requirement_ST001_Math_1 by 1.000000000
2025-02-23 18:25:21,696 - INFO - 
2025-02-23 18:25:29,113 - INFO - Presolve removed 877 rows and 32 columns (presolve time = 5s)...
2025-02-23 18:25:34,107 - INFO - Presolve removed 879 rows and 34 columns (presolve time = 10s)...
2025-02-23 18:25:39,108 - INFO - Presolve removed 879 rows and 34 columns (presolve time = 15s)...
2025-02-23 18:25:44,107 - INFO - Presolve removed 879 rows and 34 columns (presolve time = 20s)...
2025-02-23 18:25:49,108 - INFO - Presolve removed 879 rows and 34 columns (presolve time = 25s)...
2025-02-23 18:25:54,110 - INFO - Presolve removed 879 rows and 34 columns (presolve time = 30s)...
2025-02-23 18:25:59,110 - INFO - Presolve removed 879 rows and 34 columns (presolve time = 35s)...
2025-02-23 18:26:04,121 - INFO - Presolve removed 879 rows and 34 columns (presolve time = 40s)...
2025-02-23 18:26:09,112 - INFO - Presolve removed 879 rows and 34 columns (presolve time = 45s)...
2025-02-23 18:26:14,111 - INFO - Presolve removed 879 rows and 34 columns (presolve time = 50s)...
2025-02-23 18:26:19,111 - INFO - Presolve removed 879 rows and 34 columns (presolve time = 55s)...
2025-02-23 18:26:24,127 - INFO - Presolve removed 879 rows and 34 columns (presolve time = 60s)...
2025-02-23 18:26:29,108 - INFO - Presolve removed 879 rows and 34 columns (presolve time = 65s)...
2025-02-23 18:26:34,132 - INFO - Presolve removed 879 rows and 34 columns (presolve time = 70s)...
2025-02-23 18:26:39,113 - INFO - Presolve removed 879 rows and 34 columns (presolve time = 75s)...
2025-02-23 18:26:44,125 - INFO - Presolve removed 879 rows and 34 columns (presolve time = 80s)...
2025-02-23 18:26:49,118 - INFO - Presolve removed 879 rows and 34 columns (presolve time = 85s)...
2025-02-23 18:26:54,123 - INFO - Presolve removed 879 rows and 34 columns (presolve time = 90s)...
2025-02-23 18:26:59,128 - INFO - Presolve removed 879 rows and 34 columns (presolve time = 95s)...
2025-02-23 18:27:04,122 - INFO - Presolve removed 879 rows and 34 columns (presolve time = 100s)...
2025-02-23 18:27:09,130 - INFO - Presolve removed 879 rows and 34 columns (presolve time = 105s)...
2025-02-23 18:27:14,125 - INFO - Presolve removed 879 rows and 34 columns (presolve time = 110s)...
2025-02-23 18:27:19,122 - INFO - Presolve removed 879 rows and 34 columns (presolve time = 115s)...
2025-02-23 18:27:24,112 - INFO - Presolve removed 879 rows and 34 columns (presolve time = 120s)...
2025-02-23 18:27:29,111 - INFO - Presolve removed 879 rows and 34 columns (presolve time = 125s)...
2025-02-23 18:27:34,117 - INFO - Presolve removed 879 rows and 34 columns (presolve time = 130s)...
2025-02-23 18:27:39,119 - INFO - Presolve removed 879 rows and 34 columns (presolve time = 135s)...
2025-02-23 18:27:44,124 - INFO - Presolve removed 879 rows and 34 columns (presolve time = 140s)...
2025-02-23 18:27:49,107 - INFO - Presolve removed 879 rows and 34 columns (presolve time = 145s)...
2025-02-23 18:27:54,129 - INFO - Presolve removed 879 rows and 34 columns (presolve time = 150s)...
2025-02-23 18:27:59,112 - INFO - Presolve removed 879 rows and 34 columns (presolve time = 155s)...
2025-02-23 18:28:04,110 - INFO - Presolve removed 879 rows and 34 columns (presolve time = 160s)...
2025-02-23 18:28:09,118 - INFO - Presolve removed 879 rows and 34 columns (presolve time = 165s)...
2025-02-23 18:28:14,116 - INFO - Presolve removed 879 rows and 34 columns (presolve time = 170s)...
2025-02-23 18:28:19,114 - INFO - Presolve removed 879 rows and 34 columns (presolve time = 175s)...
2025-02-23 18:28:24,118 - INFO - Presolve removed 879 rows and 34 columns (presolve time = 180s)...
2025-02-23 18:28:29,129 - INFO - Presolve removed 879 rows and 34 columns (presolve time = 185s)...
2025-02-23 18:28:34,110 - INFO - Presolve removed 879 rows and 34 columns (presolve time = 190s)...
2025-02-23 18:28:39,128 - INFO - Presolve removed 879 rows and 34 columns (presolve time = 195s)...
2025-02-23 18:28:44,108 - INFO - Presolve removed 879 rows and 34 columns (presolve time = 200s)...
2025-02-23 18:28:49,116 - INFO - Presolve removed 879 rows and 34 columns (presolve time = 205s)...
2025-02-23 18:28:54,115 - INFO - Presolve removed 879 rows and 34 columns (presolve time = 210s)...
2025-02-23 18:28:59,110 - INFO - Presolve removed 879 rows and 34 columns (presolve time = 215s)...
2025-02-23 18:29:04,125 - INFO - Presolve removed 879 rows and 34 columns (presolve time = 220s)...
2025-02-23 18:29:09,123 - INFO - Presolve removed 879 rows and 34 columns (presolve time = 225s)...
2025-02-23 18:29:14,114 - INFO - Presolve removed 879 rows and 34 columns (presolve time = 230s)...
2025-02-23 18:29:19,114 - INFO - Presolve removed 879 rows and 34 columns (presolve time = 235s)...
2025-02-23 18:29:24,128 - INFO - Presolve removed 879 rows and 34 columns (presolve time = 240s)...
2025-02-23 18:29:29,109 - INFO - Presolve removed 879 rows and 34 columns (presolve time = 245s)...
2025-02-23 18:29:34,122 - INFO - Presolve removed 879 rows and 34 columns (presolve time = 250s)...
2025-02-23 18:29:39,127 - INFO - Presolve removed 879 rows and 34 columns (presolve time = 255s)...
2025-02-23 18:29:44,110 - INFO - Presolve removed 879 rows and 34 columns (presolve time = 260s)...
2025-02-23 18:29:49,120 - INFO - Presolve removed 879 rows and 34 columns (presolve time = 265s)...
2025-02-23 18:29:54,107 - INFO - Presolve removed 879 rows and 34 columns (presolve time = 270s)...
2025-02-23 18:29:59,126 - INFO - Presolve removed 879 rows and 34 columns (presolve time = 275s)...
2025-02-23 18:30:04,125 - INFO - Presolve removed 879 rows and 34 columns (presolve time = 280s)...
2025-02-23 18:30:09,108 - INFO - Presolve removed 879 rows and 34 columns (presolve time = 285s)...
2025-02-23 18:30:14,108 - INFO - Presolve removed 879 rows and 34 columns (presolve time = 290s)...
2025-02-23 18:30:19,116 - INFO - Presolve removed 879 rows and 34 columns (presolve time = 295s)...
2025-02-23 18:30:24,114 - INFO - Presolve removed 879 rows and 34 columns (presolve time = 300s)...
2025-02-23 18:30:29,123 - INFO - Presolve removed 879 rows and 34 columns (presolve time = 305s)...
2025-02-23 18:30:34,108 - INFO - Presolve removed 879 rows and 34 columns (presolve time = 310s)...
2025-02-23 18:30:39,127 - INFO - Presolve removed 879 rows and 34 columns (presolve time = 315s)...
2025-02-23 18:30:44,114 - INFO - Presolve removed 879 rows and 34 columns (presolve time = 320s)...
2025-02-23 18:30:49,121 - INFO - Presolve removed 879 rows and 34 columns (presolve time = 325s)...
2025-02-23 18:30:54,130 - INFO - Presolve removed 879 rows and 34 columns (presolve time = 330s)...
2025-02-23 18:30:59,107 - INFO - Presolve removed 879 rows and 34 columns (presolve time = 335s)...
2025-02-23 18:31:04,107 - INFO - Presolve removed 879 rows and 34 columns (presolve time = 340s)...
2025-02-23 18:31:09,116 - INFO - Presolve removed 879 rows and 34 columns (presolve time = 345s)...
2025-02-23 18:31:14,131 - INFO - Presolve removed 879 rows and 34 columns (presolve time = 350s)...
2025-02-23 18:31:19,113 - INFO - Presolve removed 879 rows and 34 columns (presolve time = 355s)...
2025-02-23 18:31:24,127 - INFO - Presolve removed 879 rows and 34 columns (presolve time = 360s)...
2025-02-23 18:31:29,109 - INFO - Presolve removed 879 rows and 34 columns (presolve time = 365s)...
2025-02-23 18:31:34,110 - INFO - Presolve removed 879 rows and 34 columns (presolve time = 370s)...
2025-02-23 18:31:39,118 - INFO - Presolve removed 879 rows and 34 columns (presolve time = 375s)...
2025-02-23 18:31:44,114 - INFO - Presolve removed 879 rows and 34 columns (presolve time = 380s)...
2025-02-23 18:31:49,123 - INFO - Presolve removed 879 rows and 34 columns (presolve time = 385s)...
2025-02-23 18:31:54,138 - INFO - Presolve removed 879 rows and 34 columns (presolve time = 390s)...
2025-02-23 18:31:59,146 - INFO - Presolve removed 879 rows and 34 columns (presolve time = 395s)...
2025-02-23 18:32:04,116 - INFO - Presolve removed 879 rows and 34 columns (presolve time = 400s)...
2025-02-23 18:32:09,143 - INFO - Presolve removed 879 rows and 34 columns (presolve time = 405s)...
2025-02-23 18:32:14,150 - INFO - Presolve removed 879 rows and 34 columns (presolve time = 410s)...
2025-02-23 18:32:19,148 - INFO - Presolve removed 879 rows and 34 columns (presolve time = 415s)...
2025-02-23 18:32:24,150 - INFO - Presolve removed 879 rows and 34 columns (presolve time = 420s)...
2025-02-23 18:32:29,114 - INFO - Presolve removed 879 rows and 34 columns (presolve time = 425s)...
2025-02-23 18:32:34,152 - INFO - Presolve removed 879 rows and 34 columns (presolve time = 430s)...
2025-02-23 18:32:39,144 - INFO - Presolve removed 879 rows and 34 columns (presolve time = 435s)...
2025-02-23 18:32:44,107 - INFO - Presolve removed 879 rows and 34 columns (presolve time = 440s)...
2025-02-23 18:32:49,108 - INFO - Presolve removed 879 rows and 34 columns (presolve time = 445s)...
2025-02-23 18:32:54,131 - INFO - Presolve removed 879 rows and 34 columns (presolve time = 450s)...
2025-02-23 18:32:59,115 - INFO - Presolve removed 879 rows and 34 columns (presolve time = 455s)...
2025-02-23 18:33:04,167 - INFO - Presolve removed 879 rows and 34 columns (presolve time = 460s)...
2025-02-23 18:33:09,121 - INFO - Presolve removed 879 rows and 34 columns (presolve time = 465s)...
2025-02-23 18:33:14,117 - INFO - Presolve removed 879 rows and 34 columns (presolve time = 470s)...
2025-02-23 18:33:19,124 - INFO - Presolve removed 879 rows and 34 columns (presolve time = 475s)...
2025-02-23 18:33:24,111 - INFO - Presolve removed 879 rows and 34 columns (presolve time = 480s)...
2025-02-23 18:33:29,143 - INFO - Presolve removed 879 rows and 34 columns (presolve time = 485s)...
2025-02-23 18:33:34,118 - INFO - Presolve removed 879 rows and 34 columns (presolve time = 490s)...
2025-02-23 18:33:39,146 - INFO - Presolve removed 879 rows and 34 columns (presolve time = 495s)...
2025-02-23 18:33:44,165 - INFO - Presolve removed 879 rows and 34 columns (presolve time = 500s)...
2025-02-23 18:33:49,134 - INFO - Presolve removed 879 rows and 34 columns (presolve time = 505s)...
2025-02-23 18:33:54,109 - INFO - Presolve removed 879 rows and 34 columns (presolve time = 510s)...
2025-02-23 18:33:59,131 - INFO - Presolve removed 879 rows and 34 columns (presolve time = 515s)...
2025-02-23 18:34:04,161 - INFO - Presolve removed 879 rows and 34 columns (presolve time = 520s)...
2025-02-23 18:34:09,144 - INFO - Presolve removed 879 rows and 34 columns (presolve time = 525s)...
2025-02-23 18:34:14,125 - INFO - Presolve removed 879 rows and 34 columns (presolve time = 530s)...
2025-02-23 18:34:19,154 - INFO - Presolve removed 879 rows and 34 columns (presolve time = 535s)...
2025-02-23 18:34:24,148 - INFO - Presolve removed 879 rows and 34 columns (presolve time = 540s)...
2025-02-23 18:34:29,151 - INFO - Presolve removed 879 rows and 34 columns (presolve time = 545s)...
2025-02-23 18:34:34,119 - INFO - Presolve removed 879 rows and 34 columns (presolve time = 550s)...
2025-02-23 18:34:39,117 - INFO - Presolve removed 879 rows and 34 columns (presolve time = 555s)...
2025-02-23 18:34:44,124 - INFO - Presolve removed 879 rows and 34 columns (presolve time = 560s)...
2025-02-23 18:34:49,150 - INFO - Presolve removed 879 rows and 34 columns (presolve time = 565s)...
2025-02-23 18:34:54,110 - INFO - Presolve removed 879 rows and 34 columns (presolve time = 570s)...
2025-02-23 18:34:59,149 - INFO - Presolve removed 879 rows and 34 columns (presolve time = 575s)...
2025-02-23 18:35:04,160 - INFO - Presolve removed 879 rows and 34 columns (presolve time = 580s)...
2025-02-23 18:35:09,161 - INFO - Presolve removed 879 rows and 34 columns (presolve time = 585s)...
2025-02-23 18:35:14,112 - INFO - Presolve removed 879 rows and 34 columns (presolve time = 590s)...
2025-02-23 18:35:19,138 - INFO - Presolve removed 879 rows and 34 columns (presolve time = 595s)...
2025-02-23 18:35:24,121 - INFO - Presolve removed 879 rows and 34 columns (presolve time = 600s)...
2025-02-23 18:35:29,162 - INFO - Presolve removed 879 rows and 34 columns (presolve time = 605s)...
2025-02-23 18:35:34,124 - INFO - Presolve removed 879 rows and 34 columns (presolve time = 610s)...
2025-02-23 18:35:39,109 - INFO - Presolve removed 879 rows and 34 columns (presolve time = 615s)...
2025-02-23 18:35:44,109 - INFO - Presolve removed 879 rows and 34 columns (presolve time = 620s)...
2025-02-23 18:35:49,107 - INFO - Presolve removed 879 rows and 34 columns (presolve time = 625s)...
2025-02-23 18:35:54,109 - INFO - Presolve removed 879 rows and 34 columns (presolve time = 630s)...
2025-02-23 18:35:59,110 - INFO - Presolve removed 879 rows and 34 columns (presolve time = 635s)...
2025-02-23 18:36:04,109 - INFO - Presolve removed 879 rows and 34 columns (presolve time = 640s)...
2025-02-23 18:36:09,111 - INFO - Presolve removed 879 rows and 34 columns (presolve time = 645s)...
2025-02-23 18:36:14,109 - INFO - Presolve removed 879 rows and 34 columns (presolve time = 650s)...
2025-02-23 18:36:19,108 - INFO - Presolve removed 879 rows and 34 columns (presolve time = 655s)...
2025-02-23 18:36:24,109 - INFO - Presolve removed 879 rows and 34 columns (presolve time = 660s)...
2025-02-23 18:36:29,108 - INFO - Presolve removed 879 rows and 34 columns (presolve time = 665s)...
2025-02-23 18:36:34,109 - INFO - Presolve removed 879 rows and 34 columns (presolve time = 670s)...
2025-02-23 18:36:39,110 - INFO - Presolve removed 879 rows and 34 columns (presolve time = 675s)...
2025-02-23 18:36:44,109 - INFO - Presolve removed 879 rows and 34 columns (presolve time = 680s)...
2025-02-23 18:36:49,109 - INFO - Presolve removed 879 rows and 34 columns (presolve time = 685s)...
2025-02-23 18:36:54,367 - INFO - Presolve removed 879 rows and 34 columns (presolve time = 690s)...
2025-02-23 18:36:59,313 - INFO - Presolve removed 879 rows and 34 columns (presolve time = 695s)...
2025-02-23 18:37:04,110 - INFO - Presolve removed 879 rows and 34 columns (presolve time = 700s)...
2025-02-23 18:37:09,110 - INFO - Presolve removed 879 rows and 34 columns (presolve time = 705s)...
2025-02-23 18:37:14,112 - INFO - Presolve removed 879 rows and 34 columns (presolve time = 710s)...
2025-02-23 18:37:19,112 - INFO - Presolve removed 879 rows and 34 columns (presolve time = 715s)...
2025-02-23 18:37:24,110 - INFO - Presolve removed 879 rows and 34 columns (presolve time = 720s)...
2025-02-23 18:37:29,108 - INFO - Presolve removed 879 rows and 34 columns (presolve time = 725s)...
2025-02-23 18:37:34,192 - INFO - Presolve removed 879 rows and 62 columns (presolve time = 730s)...
2025-02-23 18:37:39,162 - INFO - Presolve removed 879 rows and 62 columns (presolve time = 735s)...
2025-02-23 18:37:44,133 - INFO - Presolve removed 879 rows and 62 columns (presolve time = 740s)...
2025-02-23 18:37:49,171 - INFO - Presolve removed 879 rows and 62 columns (presolve time = 745s)...
2025-02-23 18:37:54,175 - INFO - Presolve removed 879 rows and 62 columns (presolve time = 750s)...
2025-02-23 18:37:59,112 - INFO - Presolve removed 879 rows and 62 columns (presolve time = 755s)...
2025-02-23 18:38:04,112 - INFO - Presolve removed 879 rows and 62 columns (presolve time = 760s)...
2025-02-23 18:45:10,375 - INFO - Presolve removed 879 rows and 62 columns (presolve time = 1186s)...
